1000
[103,107,110,112,113,114,116,129,135,162,175,177,181,188,192,195,200,212,219,226,228,240,241,244,245,255,280,291,292,305,314,321,327,328,334,337,338,347,350,362,398,402,409,413,419,423,424,427,448,458,462,473,480,492,509,521,523,532,539,540,549,556,581,587,590,607,614,625,629,634,654,655,666,667,674,683,695,698,702,703,706,712,724,738,748,755,756,768,772,777,798]
[1,1,1,1,1,1,1,1,1,1,1,1,1,1,1,1,1,1,1,1,1,2,1,1,1,1,1,1,1,1,1,1,2,1,1,1,1,1,1,1,1,1,1,2,1,1,1,1,1,2,1,1,1,1,2,1,1,1,1,1,1,1,2,2,1,1,1,1,1,1,1,1,1,1,1,1,1,1,1,1,1,2,1,1,1,1,2,1,1,1,1]
